100
1000
200
200
200
200
198
198
197
196
196
196
194
193
193
192
192
192
192
192
191
191
190
190
190
190
188
188
187
187
187
187
186
186
185
184
184
182
182
182
182
181
179
179
179
178
178
177
177
176
176
176
176
176
175
175
173
173
172
172
172
171
171
171
171
170
169
169
168
167
167
167
166
165
165
164
164
163
163
163
163
162
162
161
161
159
158
157
157
156
156
156
155
154
154
153
153
153
151
151
150
150
